(set-logic QF_S)
(declare-fun I () String)
(declare-fun C () String)
(declare-fun E () String)
(assert (= (str.++  "dc" C "ffccddafbc")  (str.++  "d" I "dfdafbffccddafbc") ))
(assert (= (str.++  "fdebffdfebbacdeeeecfbfdcdaefdcc" E "dacfcf")  (str.++  "fdebffdfebbacdeeeecfbfdcdaefdccfffdacfcf" "") ))
(assert (= (str.++  "dfeeafebfaabfecdcecfedbdcdebfaafc" E "afbf")  (str.++  "dfeeafebfaabfecdcecfedbdcdebfaafc" E "afbf") ))
(assert (>=(* (str.len I) 9) 153))
(check-sat)
(get-model)
